(declare-const X String)
; ^\([0-9]{3}\)[0-9]{3}(-)[0-9]{4}
(assert (str.in_re X (re.++ (str.to_re "(") ((_ re.loop 3 3) (re.range "0" "9")) (str.to_re ")") ((_ re.loop 3 3) (re.range "0" "9")) (str.to_re "-") ((_ re.loop 4 4) (re.range "0" "9")) (str.to_re "\u{a}"))))
; frame_ver2\s+communityLibrarySoftwareWinCrashcomHost\x3Atid\x3D\x25toolbar\x5Fid
(assert (str.in_re X (re.++ (str.to_re "frame_ver2") (re.+ (re.union (str.to_re " ") (str.to_re "\u{9}") (str.to_re "\u{a}") (str.to_re "\u{c}") (str.to_re "\u{d}"))) (str.to_re "communityLibrarySoftwareWinCrashcomHost:tid=%toolbar_id\u{a}"))))
; User-Agent\x3Atwfofrfzlugq\x2feve\.qduuid=ppcdomain\x2Eco\x2EukGuardedReferer\x3AreadyLOGUser-Agent\x3A
(assert (not (str.in_re X (str.to_re "User-Agent:twfofrfzlugq/eve.qduuid=ppcdomain.co.ukGuardedReferer:readyLOGUser-Agent:\u{a}"))))
(check-sat)
